[2026-03-24T00:39:10.153Z] Pipeline "set_prova_set_prova_set_s002_g002" → 2026_03_24_00_39_10_set_prova_set_prova_set_s002_g002_max.sol
Set parameter WLSAccessID
Set parameter WLSSecret
Set parameter LicenseID to value 2792458
Set parameter LogFile to value "gurobi.log"
Using license file /root/gurobi.lic
Academic license 2792458 - for non-commercial use only - registered to an___@studenti.unipg.it

Gurobi Optimizer version 13.0.1 build v13.0.1rc0 (linux64 - "Ubuntu 24.04.4 LTS")
Copyright (c) 2026, Gurobi Optimization, LLC

Warning: Duplicate section found (read 'binary') - Is a variable name equal to an LP file format keyword?
Warning: Duplicate section found (read 'binary') - Is a variable name equal to an LP file format keyword?
Warning: Duplicate section found (read 'binary') - Is a variable name equal to an LP file format keyword?
Warning: Duplicate section found (read 'binary') - Is a variable name equal to an LP file format keyword?
Warning: Duplicate section found (read 'binary') - Is a variable name equal to an LP file format keyword?
Warning: Duplicate section found (read 'binary') - Is a variable name equal to an LP file format keyword?
Warning: Duplicate section found (read 'binary') - Is a variable name equal to an LP file format keyword?
Warning: Duplicate section found (read 'binary') - Is a variable name equal to an LP file format keyword?
Warning: Duplicate section found (read 'binary') - Is a variable name equal to an LP file format keyword?
Warning: Duplicate section found (read 'binary') - Is a variable name equal to an LP file format keyword?
Warning: Further warnings of this type will be omitted.
Read LP format model from file /root/bgw/data/uploads/2026_03_24_00_39_10_set_prova_set_prova_set_s002_g002_max.lp
Reading time = 0.00 seconds
: 2597 rows, 279 columns, 7866 nonzeros

Using Gurobi shared library /opt/gurobi1301/linux64/lib/libgurobi.so.13.0.1

CPU model: AMD EPYC-Genoa Processor, instruction set [SSE2|AVX|AVX2|AVX512]
Thread count: 16 physical cores, 16 logical processors, using up to 16 threads

Academic license 2792458 - for non-commercial use only - registered to an___@studenti.unipg.it
Optimize a model with 2597 rows, 279 columns and 7866 nonzeros (Max)
Model fingerprint: 0x8d7b80c2
Model has 13 linear objective coefficients
Variable types: 33 continuous, 246 integer (246 binary)
Coefficient statistics:
  Matrix range     [1e+00, 2e+01]
  Objective range  [1e+00, 1e+00]
  Bounds range     [1e+00, 1e+00]
  RHS range        [1e+00, 2e+01]

Found heuristic solution: objective 13.0000000
Presolve removed 265 rows and 57 columns
Presolve time: 0.01s
Presolved: 2332 rows, 222 columns, 7200 nonzeros
Variable types: 0 continuous, 222 integer (210 binary)
Found heuristic solution: objective 16.0000000

Root relaxation: objective 5.800000e+01, 344 iterations, 0.01 seconds (0.02 work units)

    Nodes    |    Current Node    |     Objective Bounds      |     Work
 Expl Unexpl |  Obj  Depth IntInf | Incumbent    BestBd   Gap | It/Node Time

     0     0   58.00000    0   69   16.00000   58.00000   262%     -    0s
H    0     0                      18.0000000   58.00000   222%     -    0s
H    0     0                      27.0000000   58.00000   115%     -    0s
H    0     0                      30.0000000   58.00000  93.3%     -    0s
     0     0   58.00000    0   68   30.00000   58.00000  93.3%     -    0s
     0     0   58.00000    0   68   30.00000   58.00000  93.3%     -    0s
     0     0   58.00000    0   68   30.00000   58.00000  93.3%     -    0s
H    0     0                      32.0000000   58.00000  81.2%     -    0s
H    0     0                      33.0000000   58.00000  75.8%     -    0s
H    0     0                      34.0000000   58.00000  70.6%     -    0s
     0     0   58.00000    0   69   34.00000   58.00000  70.6%     -    0s
     0     0   58.00000    0   68   34.00000   58.00000  70.6%     -    0s
     0     0   58.00000    0   57   34.00000   58.00000  70.6%     -    0s
     0     0   58.00000    0   65   34.00000   58.00000  70.6%     -    0s
     0     0   58.00000    0   65   34.00000   58.00000  70.6%     -    0s
     0     0   58.00000    0   68   34.00000   58.00000  70.6%     -    0s
     0     0   58.00000    0   68   34.00000   58.00000  70.6%     -    0s
H    0     0                      35.0000000   58.00000  65.7%     -    0s
     0     0   58.00000    0   68   35.00000   58.00000  65.7%     -    0s
     0     0   58.00000    0   68   35.00000   58.00000  65.7%     -    0s
     0     0   58.00000    0   68   35.00000   58.00000  65.7%     -    0s
     0     0   58.00000    0   68   35.00000   58.00000  65.7%     -    0s
     0     0   58.00000    0   68   35.00000   58.00000  65.7%     -    0s
     0     0   58.00000    0   66   35.00000   58.00000  65.7%     -    0s
     0     2   58.00000    0   66   35.00000   58.00000  65.7%     -    0s
H    7    15                      36.0000000   58.00000  61.1%   108    0s
 10749  2385   38.00000   32   51   36.00000   47.85556  32.9%  80.9    5s
 40231  4540   43.94444   30   65   36.00000   44.00000  22.2%  68.2   10s
 59591  2421 infeasible   31        36.00000   42.00000  16.7%  67.3   15s

Cutting planes:
  Inf proof: 1

Explored 68330 nodes (4614949 simplex iterations) in 16.55 seconds (32.16 work units)
Thread count was 16 (of 16 available processors)

Solution count 10: 36 36 36 ... 27

Optimal solution found (tolerance 1.00e-04)
Best objective 3.600000000000e+01, best bound 3.600000000000e+01, gap 0.0000%

Wrote result file '/root/bgw/data/results/2026_03_24_00_39_10_set_prova_set_prova_set_s002_g002_max.sol'

